56
1 0 10
2 0 8
2 1 2
3 0 7
3 1 3
3 2 12
4 0 21
4 1 7
4 2 11
4 3 7
5 0 15
5 1 19
5 2 12
5 3 12
5 4 13
6 0 4
6 1 8
6 2 9
6 3 17
6 4 12
6 5 7
7 0 20
7 1 7
7 2 3
7 3 8
7 4 14
7 5 24
7 6 18
8 0 15
8 1 20
8 2 16
8 3 3
8 4 4
8 5 18
8 6 19
8 7 14
9 0 24
9 1 10
9 2 13
9 3 5
9 4 5
9 5 17
9 6 21
9 7 15
9 8 8
10 0 9
10 1 2
10 2 17
10 3 8
10 4 16
10 5 15
10 6 4
10 7 1
10 8 5
10 9 19
11 0 22
11 1 19
11 2 24
11 3 22
11 4 4
11 5 13
11 6 22
11 7 13
11 8 20
11 9 8
11 10 9
12 0 23
12 1 10
12 2 12
12 3 15
12 4 4
12 5 8
12 6 3
12 7 8
12 8 1
12 9 4
12 10 24
12 11 4
13 0 2
13 1 12
13 2 9
13 3 7
13 4 16
13 5 19
13 6 6
13 7 18
13 8 20
13 9 6
13 10 17
13 11 14
13 12 14
14 0 3
14 1 9
14 2 13
14 3 7
14 4 23
14 5 15
14 6 12
14 7 2
14 8 4
14 9 5
14 10 25
14 11 20
14 12 24
14 13 10
15 0 25
15 1 5
15 2 14
15 3 20
15 4 14
15 5 13
15 6 14
15 7 9
15 8 11
15 9 10
15 10 3
15 11 21
15 12 2
15 13 22
15 14 23
16 0 6
16 1 5
16 2 22
16 3 10
16 4 3
16 5 23
16 6 13
16 7 15
16 8 24
16 9 1
16 10 4
16 11 8
16 12 22
16 13 18
16 14 25
16 15 1
17 0 23
17 1 10
17 2 6
17 3 15
17 4 17
17 5 14
17 6 3
17 7 17
17 8 8
17 9 19
17 10 5
17 11 9
17 12 24
17 13 5
17 14 5
17 15 20
17 16 23
18 0 15
18 1 22
18 2 23
18 3 16
18 4 7
18 5 13
18 6 25
18 7 5
18 8 9
18 9 19
18 10 23
18 11 2
18 12 22
18 13 2
18 14 25
18 15 16
18 16 8
18 17 10
19 0 8
19 1 24
19 2 4
19 3 11
19 4 8
19 5 13
19 6 7
19 7 1
19 8 20
19 9 24
19 10 23
19 11 23
19 12 12
19 13 23
19 14 8
19 15 2
19 16 6
19 17 2
19 18 18
20 0 19
20 1 12
20 2 1
20 3 1
20 4 13
20 5 14
20 6 12
20 7 12
20 8 15
20 9 9
20 10 20
20 11 25
20 12 11
20 13 4
20 14 19
20 15 25
20 16 7
20 17 6
20 18 25
20 19 3
21 0 3
21 1 11
21 2 24
21 3 21
21 4 12
21 5 5
21 6 9
21 7 12
21 8 13
21 9 16
21 10 25
21 11 25
21 12 23
21 13 2
21 14 11
21 15 16
21 16 6
21 17 3
21 18 24
21 19 3
21 20 13
22 0 19
22 1 5
22 2 9
22 3 22
22 4 9
22 5 10
22 6 10
22 7 23
22 8 12
22 9 13
22 10 5
22 11 1
22 12 4
22 13 24
22 14 25
22 15 22
22 16 15
22 17 15
22 18 13
22 19 8
22 20 16
22 21 19
23 0 9
23 1 10
23 2 11
23 3 25
23 4 15
23 5 7
23 6 12
23 7 24
23 8 20
23 9 12
23 10 14
23 11 14
23 12 8
23 13 11
23 14 24
23 15 16
23 16 23
23 17 9
23 18 1
23 19 5
23 20 6
23 21 1
23 22 4
24 0 7
24 1 18
24 2 24
24 3 12
24 4 13
24 5 23
24 6 21
24 7 23
24 8 17
24 9 5
24 10 12
24 11 14
24 12 1
24 13 19
24 14 22
24 15 9
24 16 21
24 17 14
24 18 25
24 19 15
24 20 18
24 21 24
24 22 4
24 23 13
25 0 20
25 1 6
25 2 17
25 3 16
25 4 13
25 5 10
25 6 7
25 7 21
25 8 15
25 9 9
25 10 16
25 11 14
25 12 17
25 13 6
25 14 22
25 15 5
25 16 14
25 17 22
25 18 15
25 19 16
25 20 3
25 21 10
25 22 6
25 23 4
25 24 3
26 0 13
26 1 1
26 2 5
26 3 23
26 4 2
26 5 19
26 6 22
26 7 6
26 8 24
26 9 8
26 10 13
26 11 19
26 12 25
26 13 5
26 14 17
26 15 14
26 16 3
26 17 8
26 18 7
26 19 22
26 20 14
26 21 3
26 22 18
26 23 17
26 24 16
26 25 17
27 0 18
27 1 25
27 2 24
27 3 3
27 4 14
27 5 18
27 6 11
27 7 24
27 8 16
27 9 5
27 10 3
27 11 24
27 12 2
27 13 15
27 14 8
27 15 7
27 16 8
27 17 6
27 18 10
27 19 20
27 20 23
27 21 17
27 22 20
27 23 25
27 24 14
27 25 4
27 26 12
28 0 9
28 1 7
28 2 6
28 3 6
28 4 10
28 5 14
28 6 8
28 7 18
28 8 19
28 9 13
28 10 6
28 11 16
28 12 24
28 13 7
28 14 12
28 15 20
28 16 14
28 17 23
28 18 25
28 19 25
28 20 12
28 21 16
28 22 13
28 23 21
28 24 20
28 25 9
28 26 24
28 27 17
29 0 16
29 1 19
29 2 5
29 3 22
29 4 17
29 5 24
29 6 15
29 7 19
29 8 12
29 9 11
29 10 13
29 11 17
29 12 11
29 13 22
29 14 7
29 15 17
29 16 9
29 17 24
29 18 1
29 19 25
29 20 2
29 21 21
29 22 8
29 23 24
29 24 24
29 25 1
29 26 21
29 27 1
29 28 1
30 0 2
30 1 24
30 2 2
30 3 11
30 4 2
30 5 17
30 6 14
30 7 22
30 8 22
30 9 14
30 10 10
30 11 23
30 12 22
30 13 9
30 14 8
30 15 16
30 16 6
30 17 19
30 18 5
30 19 22
30 20 3
30 21 17
30 22 12
30 23 17
30 24 20
30 25 16
30 26 4
30 27 7
30 28 18
30 29 7
31 0 2
31 1 18
31 2 11
31 3 6
31 4 10
31 5 6
31 6 19
31 7 8
31 8 7
31 9 15
31 10 23
31 11 19
31 12 7
31 13 8
31 14 10
31 15 3
31 16 8
31 17 9
31 18 19
31 19 2
31 20 18
31 21 22
31 22 10
31 23 25
31 24 20
31 25 15
31 26 24
31 27 9
31 28 7
31 29 17
31 30 7
32 0 2
32 1 7
32 2 16
32 3 14
32 4 10
32 5 18
32 6 12
32 7 15
32 8 12
32 9 6
32 10 21
32 11 16
32 12 16
32 13 5
32 14 4
32 15 12
32 16 19
32 17 12
32 18 8
32 19 21
32 20 13
32 21 9
32 22 16
32 23 12
32 24 21
32 25 23
32 26 13
32 27 9
32 28 12
32 29 17
32 30 10
32 31 16
33 0 22
33 1 20
33 2 16
33 3 8
33 4 17
33 5 15
33 6 21
33 7 19
33 8 5
33 9 1
33 10 23
33 11 23
33 12 4
33 13 11
33 14 2
33 15 1
33 16 12
33 17 7
33 18 10
33 19 1
33 20 12
33 21 17
33 22 18
33 23 19
33 24 7
33 25 1
33 26 17
33 27 23
33 28 25
33 29 25
33 30 2
33 31 15
33 32 3
34 0 13
34 1 15
34 2 1
34 3 25
34 4 1
34 5 9
34 6 18
34 7 13
34 8 13
34 9 3
34 10 23
34 11 17
34 12 13
34 13 4
34 14 13
34 15 17
34 16 23
34 17 19
34 18 17
34 19 17
34 20 9
34 21 3
34 22 9
34 23 4
34 24 11
34 25 6
34 26 4
34 27 4
34 28 1
34 29 20
34 30 20
34 31 4
34 32 21
34 33 25
35 0 9
35 1 6
35 2 23
35 3 15
35 4 21
35 5 22
35 6 9
35 7 16
35 8 14
35 9 14
35 10 24
35 11 4
35 12 11
35 13 14
35 14 24
35 15 4
35 16 19
35 17 16
35 18 3
35 19 17
35 20 16
35 21 8
35 22 6
35 23 16
35 24 20
35 25 15
35 26 14
35 27 14
35 28 11
35 29 16
35 30 8
35 31 2
35 32 23
35 33 17
35 34 5
36 0 4
36 1 5
36 2 7
36 3 25
36 4 1
36 5 17
36 6 3
36 7 3
36 8 22
36 9 10
36 10 4
36 11 1
36 12 9
36 13 20
36 14 17
36 15 11
36 16 7
36 17 5
36 18 19
36 19 2
36 20 17
36 21 21
36 22 20
36 23 24
36 24 13
36 25 2
36 26 22
36 27 18
36 28 3
36 29 3
36 30 6
36 31 9
36 32 20
36 33 15
36 34 15
36 35 8
37 0 14
37 1 13
37 2 7
37 3 24
37 4 9
37 5 14
37 6 17
37 7 21
37 8 6
37 9 9
37 10 13
37 11 8
37 12 4
37 13 13
37 14 1
37 15 1
37 16 25
37 17 25
37 18 8
37 19 4
37 20 6
37 21 7
37 22 22
37 23 13
37 24 17
37 25 25
37 26 16
37 27 7
37 28 21
37 29 23
37 30 23
37 31 14
37 32 6
37 33 17
37 34 14
37 35 19
37 36 7
38 0 17
38 1 22
38 2 16
38 3 4
38 4 2
38 5 8
38 6 25
38 7 5
38 8 20
38 9 14
38 10 11
38 11 5
38 12 22
38 13 25
38 14 8
38 15 24
38 16 18
38 17 23
38 18 22
38 19 25
38 20 25
38 21 20
38 22 4
38 23 8
38 24 8
38 25 17
38 26 22
38 27 11
38 28 19
38 29 11
38 30 1
38 31 1
38 32 23
38 33 7
38 34 9
38 35 6
38 36 11
38 37 25
39 0 25
39 1 5
39 2 19
39 3 18
39 4 10
39 5 9
39 6 10
39 7 9
39 8 16
39 9 23
39 10 14
39 11 14
39 12 7
39 13 4
39 14 18
39 15 25
39 16 3
39 17 7
39 18 20
39 19 5
39 20 11
39 21 21
39 22 6
39 23 19
39 24 4
39 25 6
39 26 8
39 27 9
39 28 1
39 29 17
39 30 7
39 31 16
39 32 13
39 33 2
39 34 7
39 35 10
39 36 21
39 37 25
39 38 18
40 0 19
40 1 5
40 2 16
40 3 15
40 4 2
40 5 10
40 6 11
40 7 15
40 8 9
40 9 25
40 10 4
40 11 24
40 12 15
40 13 22
40 14 25
40 15 6
40 16 20
40 17 7
40 18 23
40 19 22
40 20 1
40 21 24
40 22 22
40 23 25
40 24 15
40 25 14
40 26 8
40 27 12
40 28 1
40 29 5
40 30 14
40 31 4
40 32 20
40 33 15
40 34 5
40 35 19
40 36 20
40 37 23
40 38 14
40 39 25
41 0 24
41 1 8
41 2 1
41 3 23
41 4 12
41 5 9
41 6 9
41 7 9
41 8 18
41 9 24
41 10 18
41 11 7
41 12 20
41 13 3
41 14 23
41 15 22
41 16 25
41 17 12
41 18 4
41 19 4
41 20 1
41 21 5
41 22 18
41 23 19
41 24 12
41 25 23
41 26 11
41 27 25
41 28 6
41 29 5
41 30 1
41 31 14
41 32 4
41 33 20
41 34 21
41 35 24
41 36 23
41 37 2
41 38 19
41 39 8
41 40 20
42 0 4
42 1 7
42 2 15
42 3 1
42 4 5
42 5 20
42 6 8
42 7 20
42 8 24
42 9 19
42 10 20
42 11 24
42 12 15
42 13 14
42 14 2
42 15 16
42 16 8
42 17 8
42 18 5
42 19 10
42 20 4
42 21 8
42 22 8
42 23 21
42 24 10
42 25 16
42 26 11
42 27 22
42 28 9
42 29 16
42 30 20
42 31 17
42 32 20
42 33 12
42 34 25
42 35 6
42 36 6
42 37 14
42 38 4
42 39 5
42 40 14
42 41 20
43 0 7
43 1 25
43 2 2
43 3 22
43 4 5
43 5 2
43 6 24
43 7 7
43 8 18
43 9 4
43 10 23
43 11 5
43 12 11
43 13 20
43 14 23
43 15 2
43 16 11
43 17 10
43 18 3
43 19 7
43 20 8
43 21 16
43 22 17
43 23 20
43 24 20
43 25 11
43 26 13
43 27 19
43 28 23
43 29 20
43 30 18
43 31 8
43 32 16
43 33 24
43 34 23
43 35 12
43 36 6
43 37 23
43 38 19
43 39 7
43 40 10
43 41 12
43 42 21
44 0 1
44 1 20
44 2 24
44 3 19
44 4 11
44 5 16
44 6 24
44 7 23
44 8 2
44 9 22
44 10 23
44 11 5
44 12 11
44 13 24
44 14 9
44 15 7
44 16 17
44 17 6
44 18 4
44 19 10
44 20 11
44 21 21
44 22 19
44 23 18
44 24 12
44 25 8
44 26 21
44 27 2
44 28 10
44 29 2
44 30 18
44 31 25
44 32 2
44 33 25
44 34 15
44 35 22
44 36 2
44 37 2
44 38 20
44 39 13
44 40 22
44 41 21
44 42 2
44 43 5
45 0 18
45 1 2
45 2 19
45 3 13
45 4 14
45 5 19
45 6 18
45 7 23
45 8 9
45 9 18
45 10 18
45 11 12
45 12 14
45 13 4
45 14 12
45 15 15
45 16 20
45 17 16
45 18 20
45 19 6
45 20 17
45 21 1
45 22 18
45 23 12
45 24 16
45 25 24
45 26 1
45 27 22
45 28 8
45 29 17
45 30 1
45 31 17
45 32 9
45 33 25
45 34 17
45 35 17
45 36 24
45 37 24
45 38 7
45 39 19
45 40 17
45 41 12
45 42 18
45 43 25
45 44 7
46 0 4
46 1 14
46 2 4
46 3 6
46 4 19
46 5 18
46 6 16
46 7 16
46 8 25
46 9 8
46 10 17
46 11 8
46 12 7
46 13 3
46 14 18
46 15 23
46 16 18
46 17 17
46 18 16
46 19 17
46 20 19
46 21 19
46 22 16
46 23 24
46 24 23
46 25 8
46 26 7
46 27 20
46 28 18
46 29 12
46 30 23
46 31 8
46 32 21
46 33 6
46 34 7
46 35 7
46 36 10
46 37 14
46 38 18
46 39 11
46 40 2
46 41 16
46 42 14
46 43 5
46 44 22
46 45 1
47 0 12
47 1 14
47 2 23
47 3 19
47 4 19
47 5 24
47 6 4
47 7 11
47 8 9
47 9 13
47 10 1
47 11 5
47 12 13
47 13 3
47 14 3
47 15 25
47 16 9
47 17 17
47 18 21
47 19 9
47 20 7
47 21 13
47 22 1
47 23 25
47 24 20
47 25 14
47 26 5
47 27 10
47 28 15
47 29 14
47 30 24
47 31 12
47 32 25
47 33 15
47 34 20
47 35 15
47 36 7
47 37 19
47 38 19
47 39 9
47 40 14
47 41 19
47 42 22
47 43 9
47 44 1
47 45 7
47 46 4
48 0 18
48 1 21
48 2 6
48 3 15
48 4 23
48 5 21
48 6 23
48 7 25
48 8 11
48 9 1
48 10 19
48 11 18
48 12 5
48 13 20
48 14 1
48 15 1
48 16 11
48 17 9
48 18 7
48 19 25
48 20 1
48 21 20
48 22 2
48 23 16
48 24 15
48 25 18
48 26 4
48 27 24
48 28 21
48 29 16
48 30 13
48 31 1
48 32 19
48 33 24
48 34 18
48 35 6
48 36 24
48 37 21
48 38 2
48 39 16
48 40 10
48 41 5
48 42 9
48 43 11
48 44 19
48 45 6
48 46 1
48 47 16
49 0 2
49 1 15
49 2 25
49 3 5
49 4 21
49 5 24
49 6 16
49 7 24
49 8 22
49 9 19
49 10 22
49 11 11
49 12 7
49 13 2
49 14 23
49 15 9
49 16 8
49 17 4
49 18 4
49 19 7
49 20 7
49 21 3
49 22 13
49 23 20
49 24 18
49 25 6
49 26 13
49 27 4
49 28 2
49 29 23
49 30 22
49 31 3
49 32 10
49 33 13
49 34 11
49 35 23
49 36 24
49 37 6
49 38 8
49 39 25
49 40 23
49 41 19
49 42 2
49 43 25
49 44 12
49 45 1
49 46 18
49 47 23
49 48 23
50 0 15
50 1 2
50 2 9
50 3 9
50 4 7
50 5 25
50 6 20
50 7 19
50 8 8
50 9 10
50 10 15
50 11 22
50 12 13
50 13 6
50 14 12
50 15 6
50 16 15
50 17 3
50 18 6
50 19 22
50 20 21
50 21 7
50 22 19
50 23 19
50 24 22
50 25 5
50 26 15
50 27 11
50 28 19
50 29 13
50 30 13
50 31 16
50 32 21
50 33 23
50 34 2
50 35 24
50 36 14
50 37 18
50 38 3
50 39 25
50 40 12
50 41 17
50 42 4
50 43 21
50 44 8
50 45 7
50 46 25
50 47 18
50 48 11
50 49 11
51 0 13
51 1 20
51 2 9
51 3 10
51 4 24
51 5 22
51 6 24
51 7 3
51 8 6
51 9 19
51 10 22
51 11 16
51 12 19
51 13 9
51 14 17
51 15 3
51 16 23
51 17 3
51 18 11
51 19 17
51 20 5
51 21 23
51 22 10
51 23 17
51 24 16
51 25 22
51 26 18
51 27 25
51 28 7
51 29 11
51 30 25
51 31 24
51 32 9
51 33 1
51 34 17
51 35 8
51 36 12
51 37 18
51 38 12
51 39 15
51 40 19
51 41 23
51 42 4
51 43 9
51 44 19
51 45 6
51 46 23
51 47 15
51 48 18
51 49 15
51 50 11
52 0 21
52 1 6
52 2 14
52 3 7
52 4 16
52 5 2
52 6 8
52 7 8
52 8 15
52 9 16
52 10 21
52 11 23
52 12 24
52 13 4
52 14 3
52 15 13
52 16 24
52 17 12
52 18 19
52 19 7
52 20 13
52 21 15
52 22 14
52 23 8
52 24 7
52 25 25
52 26 20
52 27 6
52 28 22
52 29 17
52 30 4
52 31 3
52 32 14
52 33 1
52 34 17
52 35 13
52 36 1
52 37 13
52 38 8
52 39 11
52 40 15
52 41 9
52 42 8
52 43 16
52 44 8
52 45 3
52 46 7
52 47 14
52 48 17
52 49 24
52 50 21
52 51 6
53 0 2
53 1 14
53 2 17
53 3 20
53 4 12
53 5 1
53 6 6
53 7 19
53 8 12
53 9 5
53 10 18
53 11 16
53 12 21
53 13 14
53 14 3
53 15 13
53 16 24
53 17 21
53 18 5
53 19 1
53 20 4
53 21 3
53 22 18
53 23 2
53 24 5
53 25 23
53 26 15
53 27 23
53 28 16
53 29 19
53 30 13
53 31 6
53 32 5
53 33 17
53 34 1
53 35 14
53 36 20
53 37 8
53 38 20
53 39 1
53 40 1
53 41 9
53 42 21
53 43 14
53 44 12
53 45 24
53 46 23
53 47 12
53 48 5
53 49 8
53 50 13
53 51 14
53 52 12
54 0 20
54 1 13
54 2 9
54 3 24
54 4 10
54 5 7
54 6 2
54 7 22
54 8 1
54 9 7
54 10 20
54 11 16
54 12 23
54 13 10
54 14 21
54 15 8
54 16 2
54 17 25
54 18 18
54 19 21
54 20 1
54 21 20
54 22 19
54 23 13
54 24 7
54 25 21
54 26 4
54 27 16
54 28 20
54 29 11
54 30 12
54 31 25
54 32 13
54 33 1
54 34 15
54 35 19
54 36 14
54 37 1
54 38 18
54 39 24
54 40 7
54 41 22
54 42 22
54 43 12
54 44 25
54 45 20
54 46 24
54 47 10
54 48 22
54 49 21
54 50 10
54 51 22
54 52 12
54 53 1
55 0 2
55 1 11
55 2 5
55 3 11
55 4 19
55 5 13
55 6 2
55 7 3
55 8 9
55 9 16
55 10 4
55 11 23
55 12 19
55 13 13
55 14 4
55 15 8
55 16 9
55 17 22
55 18 1
55 19 14
55 20 19
55 21 7
55 22 3
55 23 18
55 24 1
55 25 2
55 26 15
55 27 7
55 28 8
55 29 7
55 30 4
55 31 7
55 32 4
55 33 9
55 34 19
55 35 12
55 36 14
55 37 20
55 38 25
55 39 22
55 40 10
55 41 2
55 42 5
55 43 3
55 44 11
55 45 14
55 46 13
55 47 14
55 48 4
55 49 14
55 50 17
55 51 9
55 52 18
55 53 8
55 54 21
